NAME 40_1_25_3
ROWS
 N COST
 L LK0
 L FK0
COLUMNS
 X0 COST -7.
 X0 LK0 1.
 X0 FK0 1.
 X1 COST 6.
 X1 LK0 2.
 X1 FK0 1.
 X2 COST 9.
 X2 LK0 -4.
 X2 FK0 1.
 X3 COST -3.
 X3 LK0 5.
 X3 FK0 0.
 X4 COST -3.
 X4 LK0 -3.
 X4 FK0 0.
 X5 COST -9.
 X5 LK0 4.
 X5 FK0 1.
 X6 COST -7.
 X6 LK0 3.
 X6 FK0 1.
 X7 COST 0.
 X7 LK0 -4.
 X7 FK0 1.
 X8 COST 6.
 X8 LK0 -4.
 X8 FK0 1.
 X9 COST -10.
 X9 LK0 -5.
 X9 FK0 0.
 X10 COST -3.
 X10 LK0 -1.
 X10 FK0 1.
 X11 COST 10.
 X11 LK0 2.
 X11 FK0 1.
 X12 COST 2.
 X12 LK0 -3.
 X12 FK0 0.
 X13 COST -9.
 X13 LK0 -5.
 X13 FK0 0.
 X14 COST 8.
 X14 LK0 0.
 X14 FK0 0.
 X15 COST -9.
 X15 LK0 5.
 X15 FK0 0.
 X16 COST -6.
 X16 LK0 2.
 X16 FK0 1.
 X17 COST 1.
 X17 LK0 5.
 X17 FK0 0.
 X18 COST -7.
 X18 LK0 4.
 X18 FK0 1.
 X19 COST 1.
 X19 LK0 2.
 X19 FK0 0.
 X20 COST 9.
 X20 LK0 -2.
 X20 FK0 0.
 X21 COST -6.
 X21 LK0 5.
 X21 FK0 0.
 X22 COST -7.
 X22 LK0 -2.
 X22 FK0 0.
 X23 COST 0.
 X23 LK0 1.
 X23 FK0 0.
 X24 COST 0.
 X24 LK0 5.
 X24 FK0 0.
 X25 COST -7.
 X25 LK0 -2.
 X25 FK0 1.
 X26 COST -8.
 X26 LK0 0.
 X26 FK0 0.
 X27 COST 4.
 X27 LK0 -5.
 X27 FK0 0.
 X28 COST 10.
 X28 LK0 -3.
 X28 FK0 1.
 X29 COST 9.
 X29 LK0 5.
 X29 FK0 1.
 X30 COST -10.
 X30 LK0 0.
 X30 FK0 0.
 X31 COST -1.
 X31 LK0 3.
 X31 FK0 0.
 X32 COST 1.
 X32 LK0 2.
 X32 FK0 0.
 X33 COST 4.
 X33 LK0 3.
 X33 FK0 0.
 X34 COST -1.
 X34 LK0 2.
 X34 FK0 0.
 X35 COST 1.
 X35 LK0 -1.
 X35 FK0 0.
 X36 COST -9.
 X36 LK0 -3.
 X36 FK0 1.
 X37 COST 9.
 X37 LK0 -5.
 X37 FK0 0.
 X38 COST -8.
 X38 LK0 -3.
 X38 FK0 1.
 X39 COST -10.
 X39 LK0 2.
 X39 FK0 0.
 Y0 COST 7.
 Y0 LK0 1.
 Y0 FK0 3.
 Y1 COST -9.
 Y1 LK0 1.
 Y1 FK0 -2.
 Y2 COST 1.
 Y2 LK0 1.
 Y2 FK0 1.
 Y3 COST -8.
 Y3 LK0 1.
 Y3 FK0 -2.
 Y4 COST -7.
 Y4 LK0 1.
 Y4 FK0 -3.
 Y5 COST 7.
 Y5 LK0 0.
 Y5 FK0 -4.
 Y6 COST 6.
 Y6 LK0 0.
 Y6 FK0 -2.
 Y7 COST -6.
 Y7 LK0 0.
 Y7 FK0 -2.
 Y8 COST 6.
 Y8 LK0 0.
 Y8 FK0 5.
 Y9 COST 4.
 Y9 LK0 1.
 Y9 FK0 5.
 Y10 COST -3.
 Y10 LK0 1.
 Y10 FK0 -1.
 Y11 COST -5.
 Y11 LK0 1.
 Y11 FK0 0.
 Y12 COST 2.
 Y12 LK0 0.
 Y12 FK0 4.
 Y13 COST 1.
 Y13 LK0 0.
 Y13 FK0 -5.
 Y14 COST -10.
 Y14 LK0 0.
 Y14 FK0 5.
 Y15 COST -10.
 Y15 LK0 1.
 Y15 FK0 3.
 Y16 COST 0.
 Y16 LK0 0.
 Y16 FK0 -1.
 Y17 COST -6.
 Y17 LK0 1.
 Y17 FK0 0.
 Y18 COST -6.
 Y18 LK0 0.
 Y18 FK0 0.
 Y19 COST -5.
 Y19 LK0 0.
 Y19 FK0 -2.
 Y20 COST 6.
 Y20 LK0 1.
 Y20 FK0 4.
 Y21 COST 9.
 Y21 LK0 1.
 Y21 FK0 3.
 Y22 COST -5.
 Y22 LK0 0.
 Y22 FK0 2.
 Y23 COST 9.
 Y23 LK0 0.
 Y23 FK0 -3.
 Y24 COST 3.
 Y24 LK0 0.
 Y24 FK0 -1.
 Y25 COST 8.
 Y25 LK0 1.
 Y25 FK0 -1.
 Y26 COST -10.
 Y26 LK0 0.
 Y26 FK0 0.
 Y27 COST -3.
 Y27 LK0 0.
 Y27 FK0 0.
 Y28 COST -5.
 Y28 LK0 0.
 Y28 FK0 0.
 Y29 COST 1.
 Y29 LK0 0.
 Y29 FK0 -2.
 Y30 COST 7.
 Y30 LK0 0.
 Y30 FK0 -2.
 Y31 COST 9.
 Y31 LK0 0.
 Y31 FK0 4.
 Y32 COST -7.
 Y32 LK0 0.
 Y32 FK0 -5.
 Y33 COST 6.
 Y33 LK0 0.
 Y33 FK0 -1.
 Y34 COST -2.
 Y34 LK0 0.
 Y34 FK0 -2.
 Y35 COST -9.
 Y35 LK0 0.
 Y35 FK0 3.
 Y36 COST 8.
 Y36 LK0 0.
 Y36 FK0 4.
 Y37 COST 1.
 Y37 LK0 0.
 Y37 FK0 1.
 Y38 COST -7.
 Y38 LK0 0.
 Y38 FK0 0.
 Y39 COST 6.
 Y39 LK0 0.
 Y39 FK0 5.
RHS
 RHS LK0 5.
 RHS FK0 7.
BOUNDS
 UI BOUND	X0	1.
 LI BOUND	X0	0.
 UI BOUND	X1	1.
 LI BOUND	X1	0.
 UI BOUND	X2	1.
 LI BOUND	X2	0.
 UI BOUND	X3	1.
 LI BOUND	X3	0.
 UI BOUND	X4	1.
 LI BOUND	X4	0.
 UI BOUND	X5	1.
 LI BOUND	X5	0.
 UI BOUND	X6	1.
 LI BOUND	X6	0.
 UI BOUND	X7	1.
 LI BOUND	X7	0.
 UI BOUND	X8	1.
 LI BOUND	X8	0.
 UI BOUND	X9	1.
 LI BOUND	X9	0.
 UI BOUND	X10	1.
 LI BOUND	X10	0.
 UI BOUND	X11	1.
 LI BOUND	X11	0.
 UI BOUND	X12	1.
 LI BOUND	X12	0.
 UI BOUND	X13	1.
 LI BOUND	X13	0.
 UI BOUND	X14	1.
 LI BOUND	X14	0.
 UI BOUND	X15	1.
 LI BOUND	X15	0.
 UI BOUND	X16	1.
 LI BOUND	X16	0.
 UI BOUND	X17	1.
 LI BOUND	X17	0.
 UI BOUND	X18	1.
 LI BOUND	X18	0.
 UI BOUND	X19	1.
 LI BOUND	X19	0.
 UI BOUND	X20	1.
 LI BOUND	X20	0.
 UI BOUND	X21	1.
 LI BOUND	X21	0.
 UI BOUND	X22	1.
 LI BOUND	X22	0.
 UI BOUND	X23	1.
 LI BOUND	X23	0.
 UI BOUND	X24	1.
 LI BOUND	X24	0.
 UI BOUND	X25	1.
 LI BOUND	X25	0.
 UI BOUND	X26	1.
 LI BOUND	X26	0.
 UI BOUND	X27	1.
 LI BOUND	X27	0.
 UI BOUND	X28	1.
 LI BOUND	X28	0.
 UI BOUND	X29	1.
 LI BOUND	X29	0.
 UI BOUND	X30	1.
 LI BOUND	X30	0.
 UI BOUND	X31	1.
 LI BOUND	X31	0.
 UI BOUND	X32	1.
 LI BOUND	X32	0.
 UI BOUND	X33	1.
 LI BOUND	X33	0.
 UI BOUND	X34	1.
 LI BOUND	X34	0.
 UI BOUND	X35	1.
 LI BOUND	X35	0.
 UI BOUND	X36	1.
 LI BOUND	X36	0.
 UI BOUND	X37	1.
 LI BOUND	X37	0.
 UI BOUND	X38	1.
 LI BOUND	X38	0.
 UI BOUND	X39	1.
 LI BOUND	X39	0.
 UI BOUND	Y0	1.
 LI BOUND	Y0	0.
 UI BOUND	Y1	1.
 LI BOUND	Y1	0.
 UI BOUND	Y2	1.
 LI BOUND	Y2	0.
 UI BOUND	Y3	1.
 LI BOUND	Y3	0.
 UI BOUND	Y4	1.
 LI BOUND	Y4	0.
 UI BOUND	Y5	1.
 LI BOUND	Y5	0.
 UI BOUND	Y6	1.
 LI BOUND	Y6	0.
 UI BOUND	Y7	1.
 LI BOUND	Y7	0.
 UI BOUND	Y8	1.
 LI BOUND	Y8	0.
 UI BOUND	Y9	1.
 LI BOUND	Y9	0.
 UI BOUND	Y10	1.
 LI BOUND	Y10	0.
 UI BOUND	Y11	1.
 LI BOUND	Y11	0.
 UI BOUND	Y12	1.
 LI BOUND	Y12	0.
 UI BOUND	Y13	1.
 LI BOUND	Y13	0.
 UI BOUND	Y14	1.
 LI BOUND	Y14	0.
 UI BOUND	Y15	1.
 LI BOUND	Y15	0.
 UI BOUND	Y16	1.
 LI BOUND	Y16	0.
 UI BOUND	Y17	1.
 LI BOUND	Y17	0.
 UI BOUND	Y18	1.
 LI BOUND	Y18	0.
 UI BOUND	Y19	1.
 LI BOUND	Y19	0.
 UI BOUND	Y20	1.
 LI BOUND	Y20	0.
 UI BOUND	Y21	1.
 LI BOUND	Y21	0.
 UI BOUND	Y22	1.
 LI BOUND	Y22	0.
 UI BOUND	Y23	1.
 LI BOUND	Y23	0.
 UI BOUND	Y24	1.
 LI BOUND	Y24	0.
 UI BOUND	Y25	1.
 LI BOUND	Y25	0.
 UI BOUND	Y26	1.
 LI BOUND	Y26	0.
 UI BOUND	Y27	1.
 LI BOUND	Y27	0.
 UI BOUND	Y28	1.
 LI BOUND	Y28	0.
 UI BOUND	Y29	1.
 LI BOUND	Y29	0.
 UI BOUND	Y30	1.
 LI BOUND	Y30	0.
 UI BOUND	Y31	1.
 LI BOUND	Y31	0.
 UI BOUND	Y32	1.
 LI BOUND	Y32	0.
 UI BOUND	Y33	1.
 LI BOUND	Y33	0.
 UI BOUND	Y34	1.
 LI BOUND	Y34	0.
 UI BOUND	Y35	1.
 LI BOUND	Y35	0.
 UI BOUND	Y36	1.
 LI BOUND	Y36	0.
 UI BOUND	Y37	1.
 LI BOUND	Y37	0.
 UI BOUND	Y38	1.
 LI BOUND	Y38	0.
 UI BOUND	Y39	1.
 LI BOUND	Y39	0.
ENDATA
